<?xml version = "1.0" standalone="yes"?>
<!-- This file has been generated by DOcplex version 2.23.222  -->
<CPLEXSolution version="1.0">
 <header
   problemName="CVRP"
   objectiveValue="7525.78"
  />
 <variables>
  <variable name="x_0_1" index="0" value="1.00000"/>
  <variable name="x_0_3" index="2" value="1.00000"/>
  <variable name="x_0_6" index="5" value="1.00000"/>
  <variable name="x_0_9" index="8" value="1.00000"/>
  <variable name="x_0_10" index="9" value="1.00000"/>
  <variable name="x_1_2" index="13" value="1.00000"/>
  <variable name="x_2_11" index="34" value="1.00000"/>
  <variable name="x_3_7" index="42" value="1.00000"/>
  <variable name="x_4_5" index="52" value="1.00000"/>
  <variable name="x_5_0" index="60" value="1.00000"/>
  <variable name="x_6_4" index="76" value="1.00000"/>
  <variable name="x_7_0" index="84" value="1.00000"/>
  <variable name="x_8_12" index="107" value="1.00000"/>
  <variable name="x_9_8" index="116" value="1.00000"/>
  <variable name="x_10_0" index="120" value="1.00000"/>
  <variable name="x_11_0" index="132" value="1.00000"/>
  <variable name="x_12_0" index="144" value="1.00000"/>
  <variable name="u_1" index="156" value="19.00000"/>
  <variable name="u_2" index="157" value="32.00000"/>
  <variable name="u_3" index="158" value="29.00000"/>
  <variable name="u_4" index="159" value="37.00000"/>
  <variable name="u_5" index="160" value="45.00000"/>
  <variable name="u_6" index="161" value="34.00000"/>
  <variable name="u_7" index="162" value="45.00000"/>
  <variable name="u_8" index="163" value="30.00000"/>
  <variable name="u_9" index="164" value="1.00000"/>
  <variable name="u_10" index="165" value="45.00000"/>
  <variable name="u_11" index="166" value="45.00000"/>
  <variable name="u_12" index="167" value="44.00000"/>
 </variables>
</CPLEXSolution>
